;--------------------------------------------------------------------------
; Benchmark created with Zazu
; Benchmark: 		freire1_norm_inv1_3xlen2
; Created:   		2022-01-11 18:12
; Generator of the ideal: 
; 		 -r + r00 + r^2 + 2*x - 2*x00 - r00^2
; Testing invariant: r^3*r00^2*x^6 - 2*r^9*x*x00 + r^7*r00*x^3 + r^4*x^6 + r^4*r00^2*x^6 - 2*r^4*x^7 + 2*r^4*x^6*x00 + r^5*r00^2*x^4 - r^6*x^6 - 2*r^6*x^5 + 3*r^6*x^4 - r^6*r00^2*x^3 + 2*r^9*x^2 + r^6*r00^2*x^4 - r^9*r00^2*x + 2*r^8*x^2 + 0*r^8*x^3 - r^8*x^4 - r^4*r00*x^6 + r^9*r00*x - 2*r^6*x^3*x00 + r^6*r00*x^3 - r^6*r00*x^4 + r^11*x - 2*r^3*x^7 + r^8*r00*x - 2*r^5*x^5 + 0*r^5*x^6 + 2*r^7*x^4 - r^7*x^3 + 2*r^5*x^4*x00 - r^3*r00*x^6 + r^9*x^3 - r^7*r00^2*x^3 - r^5*r00*x^4 - r^8*r00^2*x + 2*r^6*x^4*x00 - 2*r^8*x*x00 + 0*r^10*x + 2*r^3*x^6*x00 - r^9*x - 2*r^7*x^3*x00
;--------------------------------------------------------------------------

(set-logic NIA)
(set-option :produce-proofs true)

(declare-const r00 Int)
(declare-const x00 Int)

(assert 
	(exists
		((r Int) (x Int))
		(and
			(= (- (+ (* (- 1) r) r00 (* r r) (* 2 x)) (* 2 x00) (* r00 r00)) 0)

			(or
				(not (= (- (+ (- (+ (- (+ (- (+ (- (+ (- (+ (- (+ (- (+ (- (+ (- (+ (- (+ (- (+ (- (+ (- (+ (- (* (+ r 1) (+ r 1) (+ r 1) r00 r00 (- x r) (- x r) (- x r) (- x r) (- x r) (- x r)) (* 2 (+ r 1) (+ r 1) (+ r 1) (+ r 1) (+ r 1) (+ r 1) (+ r 1) (+ r 1) (+ r 1) (- x r) x00)) (* (+ r 1) (+ r 1) (+ r 1) (+ r 1) (+ r 1) (+ r 1) (+ r 1) r00 (- x r) (- x r) (- x r)) (* (+ r 1) (+ r 1) (+ r 1) (+ r 1) (- x r) (- x r) (- x r) (- x r) (- x r) (- x r)) (* (+ r 1) (+ r 1) (+ r 1) (+ r 1) r00 r00 (- x r) (- x r) (- x r) (- x r) (- x r) (- x r))) (* 2 (+ r 1) (+ r 1) (+ r 1) (+ r 1) (- x r) (- x r) (- x r) (- x r) (- x r) (- x r) (- x r))) (* 2 (+ r 1) (+ r 1) (+ r 1) (+ r 1) (- x r) (- x r) (- x r) (- x r) (- x r) (- x r) x00) (* (+ r 1) (+ r 1) (+ r 1) (+ r 1) (+ r 1) r00 r00 (- x r) (- x r) (- x r) (- x r))) (* (+ r 1) (+ r 1) (+ r 1) (+ r 1) (+ r 1) (+ r 1) (- x r) (- x r) (- x r) (- x r) (- x r) (- x r)) (* 2 (+ r 1) (+ r 1) (+ r 1) (+ r 1) (+ r 1) (+ r 1) (- x r) (- x r) (- x r) (- x r) (- x r))) (* 3 (+ r 1) (+ r 1) (+ r 1) (+ r 1) (+ r 1) (+ r 1) (- x r) (- x r) (- x r) (- x r))) (* (+ r 1) (+ r 1) (+ r 1) (+ r 1) (+ r 1) (+ r 1) r00 r00 (- x r) (- x r) (- x r))) (* 2 (+ r 1) (+ r 1) (+ r 1) (+ r 1) (+ r 1) (+ r 1) (+ r 1) (+ r 1) (+ r 1) (- x r) (- x r)) (* (+ r 1) (+ r 1) (+ r 1) (+ r 1) (+ r 1) (+ r 1) r00 r00 (- x r) (- x r) (- x r) (- x r))) (* (+ r 1) (+ r 1) (+ r 1) (+ r 1) (+ r 1) (+ r 1) (+ r 1) (+ r 1) (+ r 1) r00 r00 (- x r))) (* 2 (+ r 1) (+ r 1) (+ r 1) (+ r 1) (+ r 1) (+ r 1) (+ r 1) (+ r 1) (- x r) (- x r)) (* 0 (+ r 1) (+ r 1) (+ r 1) (+ r 1) (+ r 1) (+ r 1) (+ r 1) (+ r 1) (- x r) (- x r) (- x r))) (* (+ r 1) (+ r 1) (+ r 1) (+ r 1) (+ r 1) (+ r 1) (+ r 1) (+ r 1) (- x r) (- x r) (- x r) (- x r)) (* (+ r 1) (+ r 1) (+ r 1) (+ r 1) r00 (- x r) (- x r) (- x r) (- x r) (- x r) (- x r))) (* (+ r 1) (+ r 1) (+ r 1) (+ r 1) (+ r 1) (+ r 1) (+ r 1) (+ r 1) (+ r 1) r00 (- x r))) (* 2 (+ r 1) (+ r 1) (+ r 1) (+ r 1) (+ r 1) (+ r 1) (- x r) (- x r) (- x r) x00)) (* (+ r 1) (+ r 1) (+ r 1) (+ r 1) (+ r 1) (+ r 1) r00 (- x r) (- x r) (- x r))) (* (+ r 1) (+ r 1) (+ r 1) (+ r 1) (+ r 1) (+ r 1) r00 (- x r) (- x r) (- x r) (- x r))) (* (+ r 1) (+ r 1) (+ r 1) (+ r 1) (+ r 1) (+ r 1) (+ r 1) (+ r 1) (+ r 1) (+ r 1) (+ r 1) (- x r))) (* 2 (+ r 1) (+ r 1) (+ r 1) (- x r) (- x r) (- x r) (- x r) (- x r) (- x r) (- x r))) (* (+ r 1) (+ r 1) (+ r 1) (+ r 1) (+ r 1) (+ r 1) (+ r 1) (+ r 1) r00 (- x r))) (* 2 (+ r 1) (+ r 1) (+ r 1) (+ r 1) (+ r 1) (- x r) (- x r) (- x r) (- x r) (- x r))) (* 0 (+ r 1) (+ r 1) (+ r 1) (+ r 1) (+ r 1) (- x r) (- x r) (- x r) (- x r) (- x r) (- x r)) (* 2 (+ r 1) (+ r 1) (+ r 1) (+ r 1) (+ r 1) (+ r 1) (+ r 1) (- x r) (- x r) (- x r) (- x r))) (* (+ r 1) (+ r 1) (+ r 1) (+ r 1) (+ r 1) (+ r 1) (+ r 1) (- x r) (- x r) (- x r))) (* 2 (+ r 1) (+ r 1) (+ r 1) (+ r 1) (+ r 1) (- x r) (- x r) (- x r) (- x r) x00)) (* (+ r 1) (+ r 1) (+ r 1) r00 (- x r) (- x r) (- x r) (- x r) (- x r) (- x r))) (* (+ r 1) (+ r 1) (+ r 1) (+ r 1) (+ r 1) (+ r 1) (+ r 1) (+ r 1) (+ r 1) (- x r) (- x r) (- x r))) (* (+ r 1) (+ r 1) (+ r 1) (+ r 1) (+ r 1) (+ r 1) (+ r 1) r00 r00 (- x r) (- x r) (- x r)) (* (+ r 1) (+ r 1) (+ r 1) (+ r 1) (+ r 1) r00 (- x r) (- x r) (- x r) (- x r)) (* (+ r 1) (+ r 1) (+ r 1) (+ r 1) (+ r 1) (+ r 1) (+ r 1) (+ r 1) r00 r00 (- x r))) (* 2 (+ r 1) (+ r 1) (+ r 1) (+ r 1) (+ r 1) (+ r 1) (- x r) (- x r) (- x r) (- x r) x00)) (* 2 (+ r 1) (+ r 1) (+ r 1) (+ r 1) (+ r 1) (+ r 1) (+ r 1) (+ r 1) (- x r) x00)) (* 0 (+ r 1) (+ r 1) (+ r 1) (+ r 1) (+ r 1) (+ r 1) (+ r 1) (+ r 1) (+ r 1) (+ r 1) (- x r)) (* 2 (+ r 1) (+ r 1) (+ r 1) (- x r) (- x r) (- x r) (- x r) (- x r) (- x r) x00)) (* (+ r 1) (+ r 1) (+ r 1) (+ r 1) (+ r 1) (+ r 1) (+ r 1) (+ r 1) (+ r 1) (- x r)) (* 2 (+ r 1) (+ r 1) (+ r 1) (+ r 1) (+ r 1) (+ r 1) (+ r 1) (- x r) (- x r) (- x r) x00)) 0))
			)
		)
	)
)
(check-sat)
(get-proof)
(exit)
